
  32    4
  10   10   10   10

   0   0   0   0   0   3 2 3 15 
   2   1   1   1   0   2 20 4 
  10   1   0   5   1   2 20 4 
   3   0   4   4   4   2 8 5 
   7   0   3   2   3   2 11 6 
   8   4   3   5   0   2 22 7 
   1   4   5   7   0   2 18 9 
   4   8   6   0   3   2 11 10 
   3   3   2   0   3   1 10 
   1   2   3   5   0   3 26 17 12 
   6   5   1   3   0   3 26 23 13 
   2   6   0   2   2   2 23 13 
   4   5   4   2   0   1 14 
   1   0   2   3   4   1 16 
   6   5   4   0   2   1 16 
   6   0  10   7   4   2 30 19 
   8   3   0   2   3   2 30 19 
   6   0   4   5   8   2 30 19 
   9   0   2   3   8   3 31 25 21 
   6   0   4   5   3   1 21 
   8   3   5   0   8   3 29 28 24 
   3   3   0   6   2   2 28 27 
   3   3   0   7   6   1 24 
   1   5   4   0   3   1 27 
   6   5   2   0   4   1 28 
   3   4   6   0   6   1 30 
   7   5   0   3   6   1 32
   1   7   0   7   2   1 32
  10   3   5   4   0   1 32
   9   0   5   2   3   1 32
   3   3   7   2   0   1 32
   0   0   0   0   0   0 
